language Essence 1.3

letting bot_end be [1545, 104, 35, 339, 1481, 2, 1551, 1486, 1574, 1455, 122, 26; int(1..12)]
letting bot_start be [281, 1547, 1476, 1272, 10, 1321, 587, 252, 12, 7, 1274, 1521; int(1..12)]
letting buffer_col be 2
letting buffer_row be 2
letting corridor_size be 1
letting n_shelves_col be 9
letting n_shelves_row be 24
letting shelf_col_size be 2
letting shelf_row_size be 1
